NAME : XML100_2326_11
DIMENSION : 101
NB_CLUSTERS : 26
CLUSTERING_ALG : DBSCAN
CLUSTERING_PARAMS : eps(47), minSamples(3)
CLUSTERS
1 0
2 1 4 11 19 27 30 41
3 5 7 13 39 47 95 100
4 3 14 17 36 73 75 83 91 96
5 6 26 31 50 57 59 61 63 69 70 74 77 86 99
6 22 34 53
7 32 38 46 81 87 97
8 2 65
9 16 67 89
10 35 52
11 21 51 93
12 45 58
13 15 23 43 62
14 24 37 42 80 92
15 9 20 76
16 10 12 82
17 49 72 98
18 25 90
19 18 29 56
20 40 85
21 66 71
22 78 88
23 44 55 64 94
24 48 60 84
25 8 33 68 79
26 28 54
EOF